benchmark/results/graph__10-1000-0.10-02_16/graph__10-1000-0.10-02_16_Quinton_Benders_aux.lp
\ This file has been generated by DOcplex
\ ENCODING=ISO-8859-1
\Problem name: Quinton Benders_auxiliary_sub

Minimize
 obj: 0.000782472613 pi_nr_a0 + 0.000988990817 pi_nr_a1
      + 0.000975609756 pi_nr_a2 + 0.000814995925 pi_nr_a3
      + 0.001027749229 pi_nr_a4 + 0.001293661061 pi_nr_a5
      + 0.001004546946 pi_nr_a6 + 0.001733102253 pi_nr_a7
      + 0.000924205501 pi_nr_a8 + 0.000827814570 pi_nr_a9 + pi_p_a2_a3
      + pi_p_a5_a6 + pi_p_a7_a3 + pi_p_a6_a4 + pi_p_a6_a9 + pi_p_a7_a7
      + pi_p_a4_a4 + pi_p_a8_a9 + 1.000000000000 pi_d_a0_a1_proc_1
      + 1973.246027114186 pi_d_a0_a1_proc_0 + 603.753972885814 pi_d_a1_a0_proc_1
      + 2576 pi_d_a1_a0_proc_0 + 2576.628531917493 pi_d_a0_a2_proc_1
      + 2576.628437076081 pi_d_a0_a2_proc_0 + 0.371562923919 pi_d_a2_a0_proc_1
      + 0.371468082507 pi_d_a2_a0_proc_0 + 1.750094843740 pi_d_a0_a3_proc_1
      - 0.750000002328 pi_d_a3_a0_proc_1 + 1.968816841173 pi_d_a0_a4_proc_1
      - 0.968721999761 pi_d_a4_a0_proc_1 + 0.563083715742 pi_d_a0_a5_proc_0
      + 2576.436821442846 pi_d_a5_a0_proc_0 + 31.187492370606 pi_d_a0_a6_proc_1
      + 2576.999897529194 pi_d_a0_a6_proc_0 + 0.000102470806 pi_d_a6_a0_proc_1
      + 2545.812507629395 pi_d_a6_a0_proc_0
      + 2559.230827738504 pi_d_a0_a7_proc_0 + 17.769077420085 pi_d_a7_a0_proc_0
      + 1.155421411924 pi_d_a0_a8_proc_1 + 2576.999937708489 pi_d_a0_a8_proc_0
      + 0.000062291511 pi_d_a8_a0_proc_1 + 2575.844578588076 pi_d_a8_a0_proc_0
      + 2197.013266579524 pi_d_a0_a9_proc_0 + 379.986638579064 pi_d_a9_a0_proc_0
      + 2575.685546875000 pi_d_a1_a2_proc_1
      + 1971.931668830598 pi_d_a1_a2_proc_0 + 605.068331169402 pi_d_a2_a1_proc_1
      + 1.314453125000 pi_d_a2_a1_proc_0 + 604.753858911311 pi_d_a1_a3_proc_1
      + 0.000019133091 pi_d_a3_a1_proc_1 + 1.001333005539 pi_d_a1_a4_proc_1
      + 603.752545038863 pi_d_a4_a1_proc_1 + 657.824239294362 pi_d_a1_a5_proc_0
      + 1315.421882661236 pi_d_a5_a1_proc_0 + 1.003877983810 pi_d_a1_a6_proc_1
      + 1943.062499939407 pi_d_a1_a6_proc_0 + 633.937500060593 pi_d_a6_a1_proc_1
      + 2575.996122016190 pi_d_a6_a1_proc_0 + 643.257812500274 pi_d_a1_a7_proc_0
      + 1329.988309455324 pi_d_a7_a1_proc_0 + 0.502610105060 pi_d_a1_a8_proc_1
      + 1972.593343198635 pi_d_a1_a8_proc_0 + 604.406656801365 pi_d_a8_a1_proc_1
      + 2576.497389894940 pi_d_a8_a1_proc_0
      + 1973.243192268098 pi_d_a1_a9_proc_0 + 0.002929687500 pi_d_a9_a1_proc_0
      + 1.257834672941 pi_d_a2_a3_proc_1 + 2575.742165327059 pi_d_a3_a2_proc_1
      + 324.660513647259 pi_d_a2_a4_proc_1 + 2252.339486352741 pi_d_a4_a2_proc_1
      - 0.000000000000 pi_d_a2_a5_proc_0 + 1.000000000000 pi_d_a5_a2_proc_0
      + 610.625000000000 pi_d_a2_a6_proc_1 + 580.437500000000 pi_d_a2_a6_proc_0
      + 1996.562500000000 pi_d_a6_a2_proc_1
      + 1966.375000000000 pi_d_a6_a2_proc_0 + 1.000000000000 pi_d_a2_a7_proc_0
      - 0.000000000000 pi_d_a7_a2_proc_0 + 85.905388878416 pi_d_a2_a8_proc_1
      + 85.750000016394 pi_d_a2_a8_proc_0 + 2491.249999983606 pi_d_a8_a2_proc_1
      + 2491.094611121584 pi_d_a8_a2_proc_0 + 1.000000000000 pi_d_a2_a9_proc_0
      - 0.000000000000 pi_d_a9_a2_proc_0 + 0.968816841024 pi_d_a3_a4_proc_1
      + 0.031183158976 pi_d_a4_a3_proc_1 + 8.950651232280 pi_d_a3_a6_proc_1
      + 22.236848767720 pi_d_a6_a3_proc_1 + 0.000618964562 pi_d_a3_a8_proc_1
      + 1.154769897461 pi_d_a8_a3_proc_1 + 30.208400851444 pi_d_a4_a6_proc_1
      + 0.979099148556 pi_d_a6_a4_proc_1 + 0.034897975702 pi_d_a4_a8_proc_1
      + 1.120490886321 pi_d_a8_a4_proc_1 + 1.187500000000 pi_d_a5_a6_proc_0
      + 2545.625000000000 pi_d_a6_a5_proc_0 + 1.000007792872 pi_d_a5_a7_proc_0
      - 0.000007792872 pi_d_a7_a5_proc_0 + 2576.844611137977 pi_d_a5_a8_proc_0
      + 1.750007792872 pi_d_a5_a9_proc_0 - 0.750007792872 pi_d_a9_a5_proc_0
      + 25.477203130708 pi_d_a6_a7_proc_0 + 2521.335296869292 pi_d_a7_a6_proc_0
      + 0.164551780109 pi_d_a6_a8_proc_1 + 2545.821662918086 pi_d_a6_a8_proc_0
      + 31.178337081914 pi_d_a8_a6_proc_1 + 2576.835448219891 pi_d_a8_a6_proc_0
      + 0.750024557085 pi_d_a6_a9_proc_0 + 2546.062475442915 pi_d_a9_a6_proc_0
      + 2558.235236137977 pi_d_a7_a8_proc_0 + 18.609375000000 pi_d_a8_a7_proc_0
      + 0.984375000000 pi_d_a7_a9_proc_0 + 0.015625000000 pi_d_a9_a7_proc_0
      + 0.998441457727 pi_d_a8_a9_proc_0 + 2575.846169680251 pi_d_a9_a8_proc_0
      + 0.000000036817 pi_y2_a0_proc_0 + 0.999999963183 pi_y2_a0_proc_1
      + 0.234376505452 pi_y2_a1_proc_0 + 0.765623494548 pi_y2_a1_proc_1
      + pi_y2_a2_proc_0 + 0.000000000000 pi_y2_a2_proc_1 + pi_y2_a3_proc_1
      + pi_y2_a4_proc_1 + pi_y2_a5_proc_0 + 0.011718750000 pi_y2_a6_proc_0
      + 0.988281250000 pi_y2_a6_proc_1 + pi_y2_a7_proc_0
      + 0.000060321763 pi_y2_a8_proc_0 + 0.999939678237 pi_y2_a8_proc_1
      + pi_y2_a9_proc_0
Subject To
 c1: 0.000782472613 pi_nr_a0 + 0.001009081736 pi_nr_a1 + 0.000975609756 pi_nr_a2
     + 0.000814995925 pi_nr_a3 + 0.001027749229 pi_nr_a4
     + 0.001293661061 pi_nr_a5 + 0.001004016064 pi_nr_a6
     + 0.001733102253 pi_nr_a7 + 0.000924214418 pi_nr_a8
     + 0.000827814570 pi_nr_a9 + pi_p_a2_a3 + pi_p_a5_a6 + pi_p_a7_a3
     + pi_p_a6_a4 + pi_p_a6_a9 + pi_p_a7_a7 + pi_p_a4_a4 + pi_p_a8_a9
     + pi_d_a0_a1_proc_1 + 2577 pi_d_a0_a1_proc_0 + 2576 pi_d_a1_a0_proc_0
     + 2577 pi_d_a0_a2_proc_1 + 2577 pi_d_a0_a2_proc_0 + 2 pi_d_a0_a3_proc_1
     - pi_d_a3_a0_proc_1 + 2 pi_d_a0_a4_proc_1 - pi_d_a4_a0_proc_1
     + 2577 pi_d_a5_a0_proc_0 + pi_d_a0_a6_proc_1 + 2577 pi_d_a0_a6_proc_0
     + 2576 pi_d_a6_a0_proc_0 + 2577 pi_d_a0_a7_proc_0 + pi_d_a0_a8_proc_1
     + 2577 pi_d_a0_a8_proc_0 + 2576 pi_d_a8_a0_proc_0 + 2577 pi_d_a0_a9_proc_0
     + 2576 pi_d_a1_a2_proc_1 + 2576 pi_d_a1_a2_proc_0 + pi_d_a2_a1_proc_1
     + pi_d_a2_a1_proc_0 + pi_d_a1_a3_proc_1 + pi_d_a1_a4_proc_1
     + 2577 pi_d_a5_a1_proc_0 + pi_d_a1_a6_proc_1 + 2577 pi_d_a1_a6_proc_0
     + 2576 pi_d_a6_a1_proc_0 + 2577 pi_d_a7_a1_proc_0 + 2576 pi_d_a1_a8_proc_0
     + pi_d_a8_a1_proc_1 + 2577 pi_d_a8_a1_proc_0 + 2577 pi_d_a1_a9_proc_0
     + pi_d_a2_a3_proc_1 + 2576 pi_d_a3_a2_proc_1 + 2 pi_d_a2_a4_proc_1
     + 2575 pi_d_a4_a2_proc_1 + pi_d_a5_a2_proc_0 + pi_d_a2_a6_proc_1
     + pi_d_a2_a6_proc_0 + 2576 pi_d_a6_a2_proc_1 + 2576 pi_d_a6_a2_proc_0
     + pi_d_a2_a7_proc_0 + 114 pi_d_a2_a8_proc_1 + 114 pi_d_a2_a8_proc_0
     + 2463 pi_d_a8_a2_proc_1 + 2463 pi_d_a8_a2_proc_0 + pi_d_a2_a9_proc_0
     + pi_d_a3_a4_proc_1 + pi_d_a6_a3_proc_1 + pi_d_a8_a3_proc_1
     + pi_d_a6_a4_proc_1 + pi_d_a8_a4_proc_1 + pi_d_a5_a6_proc_0
     + 2576 pi_d_a6_a5_proc_0 + pi_d_a5_a7_proc_0 + 2577 pi_d_a5_a8_proc_0
     + 2 pi_d_a5_a9_proc_0 - pi_d_a9_a5_proc_0 + 2577 pi_d_a7_a6_proc_0
     + 2576 pi_d_a6_a8_proc_0 + pi_d_a8_a6_proc_1 + 2577 pi_d_a8_a6_proc_0
     + pi_d_a6_a9_proc_0 + 2576 pi_d_a9_a6_proc_0 + 2576 pi_d_a7_a8_proc_0
     + pi_d_a8_a7_proc_0 + pi_d_a7_a9_proc_0 + pi_d_a8_a9_proc_0
     + 2576 pi_d_a9_a8_proc_0 + pi_y2_a0_proc_1 + pi_y2_a1_proc_1
     + pi_y2_a2_proc_0 + pi_y2_a3_proc_1 + pi_y2_a4_proc_1 + pi_y2_a5_proc_0
     + pi_y2_a6_proc_1 + pi_y2_a7_proc_0 + pi_y2_a8_proc_1 + pi_y2_a9_proc_0 = 
     0.000136612022
 c2: pi_nr_a0 + pi_nr_a1 + pi_nr_a2 + pi_nr_a3 + pi_nr_a4 + pi_nr_a5 + pi_nr_a6
     + pi_nr_a7 + pi_nr_a8 + pi_nr_a9 - pi_y1_a0 - pi_y1_a1 - pi_y1_a2
     - pi_y1_a3 - pi_y1_a4 - pi_y1_a5 - pi_y1_a6 - pi_y1_a7 - pi_y1_a8
     - pi_y1_a9 >= 1
 c3: - pi_p_a1_a0 - pi_p_a4_a0 + pi_p_a0_a5 + pi_d_a0_a1_proc_1
     + pi_d_a0_a1_proc_0 - pi_d_a1_a0_proc_1 - pi_d_a1_a0_proc_0
     + pi_d_a0_a2_proc_1 + pi_d_a0_a2_proc_0 - pi_d_a2_a0_proc_1
     - pi_d_a2_a0_proc_0 + pi_d_a0_a3_proc_1 - pi_d_a3_a0_proc_1
     + pi_d_a0_a4_proc_1 - pi_d_a4_a0_proc_1 + pi_d_a0_a5_proc_0
     - pi_d_a5_a0_proc_0 + pi_d_a0_a6_proc_1 + pi_d_a0_a6_proc_0
     - pi_d_a6_a0_proc_1 - pi_d_a6_a0_proc_0 + pi_d_a0_a7_proc_0
     - pi_d_a7_a0_proc_0 + pi_d_a0_a8_proc_1 + pi_d_a0_a8_proc_0
     - pi_d_a8_a0_proc_1 - pi_d_a8_a0_proc_0 + pi_d_a0_a9_proc_0
     - pi_d_a9_a0_proc_0 >= 0
 c4: 1286 pi_p_a0_a5 + 1286 pi_d_a0_a1_proc_0 + 1286 pi_d_a0_a2_proc_0
     + 1286 pi_d_a0_a5_proc_0 + 1286 pi_d_a0_a6_proc_0 + 1286 pi_d_a0_a7_proc_0
     + 1286 pi_d_a0_a8_proc_0 + 1286 pi_d_a0_a9_proc_0 + pi_y1_a0
     + pi_y2_a0_proc_0 >= 0
 c5: 1278 pi_p_a0_a5 + 1278 pi_d_a0_a1_proc_1 + 1278 pi_d_a0_a2_proc_1
     + 1278 pi_d_a0_a3_proc_1 + 1278 pi_d_a0_a4_proc_1 + 1278 pi_d_a0_a6_proc_1
     + 1278 pi_d_a0_a8_proc_1 + pi_y1_a0 + pi_y2_a0_proc_1 >= 0
 c6: pi_p_a1_a0 + pi_p_a1_a2 - pi_p_a9_a1 - pi_d_a0_a1_proc_1
     - pi_d_a0_a1_proc_0 + pi_d_a1_a0_proc_1 + pi_d_a1_a0_proc_0
     + pi_d_a1_a2_proc_1 + pi_d_a1_a2_proc_0 - pi_d_a2_a1_proc_1
     - pi_d_a2_a1_proc_0 + pi_d_a1_a3_proc_1 - pi_d_a3_a1_proc_1
     + pi_d_a1_a4_proc_1 - pi_d_a4_a1_proc_1 + pi_d_a1_a5_proc_0
     - pi_d_a5_a1_proc_0 + pi_d_a1_a6_proc_1 + pi_d_a1_a6_proc_0
     - pi_d_a6_a1_proc_1 - pi_d_a6_a1_proc_0 + pi_d_a1_a7_proc_0
     - pi_d_a7_a1_proc_0 + pi_d_a1_a8_proc_1 + pi_d_a1_a8_proc_0
     - pi_d_a8_a1_proc_1 - pi_d_a8_a1_proc_0 + pi_d_a1_a9_proc_0
     - pi_d_a9_a1_proc_0 >= 0
 c7: 1083 pi_p_a1_a0 + 1083 pi_p_a1_a2 + 1083 pi_d_a1_a0_proc_0
     + 1083 pi_d_a1_a2_proc_0 + 1083 pi_d_a1_a5_proc_0 + 1083 pi_d_a1_a6_proc_0
     + 1083 pi_d_a1_a7_proc_0 + 1083 pi_d_a1_a8_proc_0 + 1083 pi_d_a1_a9_proc_0
     + pi_y1_a1 + pi_y2_a1_proc_0 >= 0
 c8: 991 pi_p_a1_a0 + 991 pi_p_a1_a2 + 991 pi_d_a1_a0_proc_1
     + 991 pi_d_a1_a2_proc_1 + 991 pi_d_a1_a3_proc_1 + 991 pi_d_a1_a4_proc_1
     + 991 pi_d_a1_a6_proc_1 + 991 pi_d_a1_a8_proc_1 + pi_y1_a1
     + pi_y2_a1_proc_1 >= 0
 c9: - pi_p_a1_a2 + pi_p_a2_a3 - pi_d_a0_a2_proc_1 - pi_d_a0_a2_proc_0
     + pi_d_a2_a0_proc_1 + pi_d_a2_a0_proc_0 - pi_d_a1_a2_proc_1
     - pi_d_a1_a2_proc_0 + pi_d_a2_a1_proc_1 + pi_d_a2_a1_proc_0
     + pi_d_a2_a3_proc_1 - pi_d_a3_a2_proc_1 + pi_d_a2_a4_proc_1
     - pi_d_a4_a2_proc_1 + pi_d_a2_a5_proc_0 - pi_d_a5_a2_proc_0
     + pi_d_a2_a6_proc_1 + pi_d_a2_a6_proc_0 - pi_d_a6_a2_proc_1
     - pi_d_a6_a2_proc_0 + pi_d_a2_a7_proc_0 - pi_d_a7_a2_proc_0
     + pi_d_a2_a8_proc_1 + pi_d_a2_a8_proc_0 - pi_d_a8_a2_proc_1
     - pi_d_a8_a2_proc_0 + pi_d_a2_a9_proc_0 - pi_d_a9_a2_proc_0 >= 0
 c10: 1025 pi_p_a2_a3 + 1025 pi_d_a2_a0_proc_0 + 1025 pi_d_a2_a1_proc_0
      + 1025 pi_d_a2_a5_proc_0 + 1025 pi_d_a2_a6_proc_0 + 1025 pi_d_a2_a7_proc_0
      + 1025 pi_d_a2_a8_proc_0 + 1025 pi_d_a2_a9_proc_0 + pi_y1_a2
      + pi_y2_a2_proc_0 >= 0
 c11: 1030 pi_p_a2_a3 + 1030 pi_d_a2_a0_proc_1 + 1030 pi_d_a2_a1_proc_1
      + 1030 pi_d_a2_a3_proc_1 + 1030 pi_d_a2_a4_proc_1 + 1030 pi_d_a2_a6_proc_1
      + 1030 pi_d_a2_a8_proc_1 + pi_y1_a2 + pi_y2_a2_proc_1 >= 0
 c12: - pi_p_a2_a3 - pi_p_a7_a3 + pi_p_a3_a9 + pi_p_a3_a7 - pi_d_a0_a3_proc_1
      + pi_d_a3_a0_proc_1 - pi_d_a1_a3_proc_1 + pi_d_a3_a1_proc_1
      - pi_d_a2_a3_proc_1 + pi_d_a3_a2_proc_1 + pi_d_a3_a4_proc_1
      - pi_d_a4_a3_proc_1 + pi_d_a3_a6_proc_1 - pi_d_a6_a3_proc_1
      + pi_d_a3_a8_proc_1 - pi_d_a8_a3_proc_1 >= 0
 c13: 1227 pi_p_a3_a9 + 1227 pi_p_a3_a7 + 1227 pi_d_a3_a0_proc_1
      + 1227 pi_d_a3_a1_proc_1 + 1227 pi_d_a3_a2_proc_1 + 1227 pi_d_a3_a4_proc_1
      + 1227 pi_d_a3_a6_proc_1 + 1227 pi_d_a3_a8_proc_1 + pi_y1_a3
      + pi_y2_a3_proc_1 >= 0
 c14: pi_p_a4_a0 + pi_p_a4_a5 - pi_p_a6_a4 - pi_d_a0_a4_proc_1
      + pi_d_a4_a0_proc_1 - pi_d_a1_a4_proc_1 + pi_d_a4_a1_proc_1
      - pi_d_a2_a4_proc_1 + pi_d_a4_a2_proc_1 - pi_d_a3_a4_proc_1
      + pi_d_a4_a3_proc_1 + pi_d_a4_a6_proc_1 - pi_d_a6_a4_proc_1
      + pi_d_a4_a8_proc_1 - pi_d_a8_a4_proc_1 >= 0
 c15: 973 pi_p_a4_a0 + 973 pi_p_a4_a5 + 973 pi_p_a4_a4 + 973 pi_d_a4_a0_proc_1
      + 973 pi_d_a4_a1_proc_1 + 973 pi_d_a4_a2_proc_1 + 973 pi_d_a4_a3_proc_1
      + 973 pi_d_a4_a6_proc_1 + 973 pi_d_a4_a8_proc_1 + pi_y1_a4
      + pi_y2_a4_proc_1 >= 0
 c16: - pi_p_a4_a5 + pi_p_a5_a6 - pi_p_a8_a5 - pi_p_a0_a5 - pi_d_a0_a5_proc_0
      + pi_d_a5_a0_proc_0 - pi_d_a1_a5_proc_0 + pi_d_a5_a1_proc_0
      - pi_d_a2_a5_proc_0 + pi_d_a5_a2_proc_0 + pi_d_a5_a6_proc_0
      - pi_d_a6_a5_proc_0 + pi_d_a5_a7_proc_0 - pi_d_a7_a5_proc_0
      + pi_d_a5_a8_proc_0 - pi_d_a8_a5_proc_0 + pi_d_a5_a9_proc_0
      - pi_d_a9_a5_proc_0 >= 0
 c17: 773 pi_p_a5_a6 + 773 pi_d_a5_a0_proc_0 + 773 pi_d_a5_a1_proc_0
      + 773 pi_d_a5_a2_proc_0 + 773 pi_d_a5_a6_proc_0 + 773 pi_d_a5_a7_proc_0
      + 773 pi_d_a5_a8_proc_0 + 773 pi_d_a5_a9_proc_0 + pi_y1_a5
      + pi_y2_a5_proc_0 >= 0
 c18: - pi_p_a5_a6 + pi_p_a6_a8 + pi_p_a6_a4 + pi_p_a6_a9 - pi_d_a0_a6_proc_1
      - pi_d_a0_a6_proc_0 + pi_d_a6_a0_proc_1 + pi_d_a6_a0_proc_0
      - pi_d_a1_a6_proc_1 - pi_d_a1_a6_proc_0 + pi_d_a6_a1_proc_1
      + pi_d_a6_a1_proc_0 - pi_d_a2_a6_proc_1 - pi_d_a2_a6_proc_0
      + pi_d_a6_a2_proc_1 + pi_d_a6_a2_proc_0 - pi_d_a3_a6_proc_1
      + pi_d_a6_a3_proc_1 - pi_d_a4_a6_proc_1 + pi_d_a6_a4_proc_1
      - pi_d_a5_a6_proc_0 + pi_d_a6_a5_proc_0 + pi_d_a6_a7_proc_0
      - pi_d_a7_a6_proc_0 + pi_d_a6_a8_proc_1 + pi_d_a6_a8_proc_0
      - pi_d_a8_a6_proc_1 - pi_d_a8_a6_proc_0 + pi_d_a6_a9_proc_0
      - pi_d_a9_a6_proc_0 >= 0
 c19: 953 pi_p_a6_a8 + 953 pi_p_a6_a4 + 953 pi_p_a6_a9 + 953 pi_d_a6_a0_proc_0
      + 953 pi_d_a6_a1_proc_0 + 953 pi_d_a6_a2_proc_0 + 953 pi_d_a6_a5_proc_0
      + 953 pi_d_a6_a7_proc_0 + 953 pi_d_a6_a8_proc_0 + 953 pi_d_a6_a9_proc_0
      + pi_y1_a6 + pi_y2_a6_proc_0 >= 0
 c20: 996 pi_p_a6_a8 + 996 pi_p_a6_a4 + 996 pi_p_a6_a9 + 996 pi_d_a6_a0_proc_1
      + 996 pi_d_a6_a1_proc_1 + 996 pi_d_a6_a2_proc_1 + 996 pi_d_a6_a3_proc_1
      + 996 pi_d_a6_a4_proc_1 + 996 pi_d_a6_a8_proc_1 + pi_y1_a6
      + pi_y2_a6_proc_1 >= 0
 c21: pi_p_a7_a3 + pi_p_a7_a8 - pi_p_a3_a7 - pi_d_a0_a7_proc_0
      + pi_d_a7_a0_proc_0 - pi_d_a1_a7_proc_0 + pi_d_a7_a1_proc_0
      - pi_d_a2_a7_proc_0 + pi_d_a7_a2_proc_0 - pi_d_a5_a7_proc_0
      + pi_d_a7_a5_proc_0 - pi_d_a6_a7_proc_0 + pi_d_a7_a6_proc_0
      + pi_d_a7_a8_proc_0 - pi_d_a8_a7_proc_0 + pi_d_a7_a9_proc_0
      - pi_d_a9_a7_proc_0 >= 0
 c22: 577 pi_p_a7_a3 + 577 pi_p_a7_a8 + 577 pi_p_a7_a7 + 577 pi_d_a7_a0_proc_0
      + 577 pi_d_a7_a1_proc_0 + 577 pi_d_a7_a2_proc_0 + 577 pi_d_a7_a5_proc_0
      + 577 pi_d_a7_a6_proc_0 + 577 pi_d_a7_a8_proc_0 + 577 pi_d_a7_a9_proc_0
      + pi_y1_a7 + pi_y2_a7_proc_0 >= 0
 c23: pi_p_a8_a5 - pi_p_a7_a8 - pi_p_a6_a8 + pi_p_a8_a9 - pi_d_a0_a8_proc_1
      - pi_d_a0_a8_proc_0 + pi_d_a8_a0_proc_1 + pi_d_a8_a0_proc_0
      - pi_d_a1_a8_proc_1 - pi_d_a1_a8_proc_0 + pi_d_a8_a1_proc_1
      + pi_d_a8_a1_proc_0 - pi_d_a2_a8_proc_1 - pi_d_a2_a8_proc_0
      + pi_d_a8_a2_proc_1 + pi_d_a8_a2_proc_0 - pi_d_a3_a8_proc_1
      + pi_d_a8_a3_proc_1 - pi_d_a4_a8_proc_1 + pi_d_a8_a4_proc_1
      - pi_d_a5_a8_proc_0 + pi_d_a8_a5_proc_0 - pi_d_a6_a8_proc_1
      - pi_d_a6_a8_proc_0 + pi_d_a8_a6_proc_1 + pi_d_a8_a6_proc_0
      - pi_d_a7_a8_proc_0 + pi_d_a8_a7_proc_0 + pi_d_a8_a9_proc_0
      - pi_d_a9_a8_proc_0 >= 0
 c24: 1288 pi_p_a8_a5 + 1288 pi_p_a8_a9 + 1288 pi_d_a8_a0_proc_0
      + 1288 pi_d_a8_a1_proc_0 + 1288 pi_d_a8_a2_proc_0 + 1288 pi_d_a8_a5_proc_0
      + 1288 pi_d_a8_a6_proc_0 + 1288 pi_d_a8_a7_proc_0 + 1288 pi_d_a8_a9_proc_0
      + pi_y1_a8 + pi_y2_a8_proc_0 >= 0
 c25: 1082 pi_p_a8_a5 + 1082 pi_p_a8_a9 + 1082 pi_d_a8_a0_proc_1
      + 1082 pi_d_a8_a1_proc_1 + 1082 pi_d_a8_a2_proc_1 + 1082 pi_d_a8_a3_proc_1
      + 1082 pi_d_a8_a4_proc_1 + 1082 pi_d_a8_a6_proc_1 + pi_y1_a8
      + pi_y2_a8_proc_1 >= 0
 c26: pi_p_a9_a1 - pi_p_a6_a9 - pi_p_a3_a9 - pi_p_a8_a9 - pi_d_a0_a9_proc_0
      + pi_d_a9_a0_proc_0 - pi_d_a1_a9_proc_0 + pi_d_a9_a1_proc_0
      - pi_d_a2_a9_proc_0 + pi_d_a9_a2_proc_0 - pi_d_a5_a9_proc_0
      + pi_d_a9_a5_proc_0 - pi_d_a6_a9_proc_0 + pi_d_a9_a6_proc_0
      - pi_d_a7_a9_proc_0 + pi_d_a9_a7_proc_0 - pi_d_a8_a9_proc_0
      + pi_d_a9_a8_proc_0 >= 0
 c27: 1208 pi_p_a9_a1 + 1208 pi_d_a9_a0_proc_0 + 1208 pi_d_a9_a1_proc_0
      + 1208 pi_d_a9_a2_proc_0 + 1208 pi_d_a9_a5_proc_0 + 1208 pi_d_a9_a6_proc_0
      + 1208 pi_d_a9_a7_proc_0 + 1208 pi_d_a9_a8_proc_0 + pi_y1_a9
      + pi_y2_a9_proc_0 >= 0

Bounds
       pi_y1_a0 Free
       pi_y1_a1 Free
       pi_y1_a2 Free
       pi_y1_a3 Free
       pi_y1_a4 Free
       pi_y1_a5 Free
       pi_y1_a6 Free
       pi_y1_a7 Free
       pi_y1_a8 Free
       pi_y1_a9 Free
End
