benchmark/results/graph__10-1000-0.10-02_16/graph__10-1000-0.10-02_16_Quinton_Benders_aux.txt
solution for: Quinton Benders_auxiliary_sub
objective: 0.120198
status: OPTIMAL_SOLUTION(2)
pi_p_a5_a6=0.000
pi_p_a0_a5=0.000
pi_d_a3_a0_proc_1=0.000
pi_d_a6_a1_proc_1=0.000
pi_d_a1_a8_proc_1=0.000
pi_d_a4_a3_proc_1=0.000
pi_d_a8_a4_proc_1=0.000
pi_y1_a0=-0.175
pi_y1_a1=-0.135
pi_y1_a3=-0.168
pi_y1_a4=-0.133
pi_y1_a5=-0.106
pi_y1_a6=-0.136
pi_y1_a8=-0.148
pi_y2_a1_proc_0=0.135
pi_y2_a6_proc_0=0.136
pi_y2_a8_proc_0=0.148
